
Gurobi 9.5.2 (mac64[x86]) logging started Thu Feb 23 15:59:47 2023

Set parameter LogFile to value "logFiles/A-1L-60D/A-1L-6U-11F-7V-60D-a-charterout.log"
Gurobi Optimizer version 9.5.2 build v9.5.2rc0 (mac64[x86])
Thread count: 4 physical cores, 8 logical processors, using up to 8 threads
Optimize a model with 11345 rows, 49415 columns and 528940 nonzeros
Model fingerprint: 0x974cd444
Variable types: 620 continuous, 48795 integer (48795 binary)
Coefficient statistics:
  Matrix range     [1e+00, 2e+05]
  Objective range  [4e+01, 2e+07]
  Bounds range     [1e+00, 1e+00]
  RHS range        [1e+00, 5e+05]
Presolve removed 3190 rows and 0 columns
Presolve time: 0.03s

Explored 0 nodes (0 simplex iterations) in 0.06 seconds (0.01 work units)
Thread count was 1 (of 8 available processors)

Solution count 0

Model is infeasible
Best objective -, best bound -, gap -
